Cu2 Pb2 O4
1.0
-0.000000 -0.000000 4.923870
5.424900 -0.000000 0.000000
-2.712450 4.406020 -2.461935
Cu O Pb
2 4 2
direct
0.000000 0.000000 0.000000 Cu
0.500000 0.500000 0.000000 Cu
0.665810 0.665810 0.831620 O
0.334190 0.834190 0.168380 O
0.334190 0.334190 0.168380 O
0.665810 0.165810 0.831620 O
0.758620 0.250000 0.500000 Pb
0.241380 0.750000 0.500000 Pb
