&control
  tstress = .true.
  tprnfor = .true.
/
&system
  nat = 1
  ntyp = 1
  ibrav = 2
  ecutwfc = 30
  ecutrho = 240
  celldm(1) = 7.50
  occupations = 'smearing'
  degauss = 0.02
/
&electrons
/
ATOMIC_SPECIES
 Al  00.000  Al.pbe-n-van_ak.UPF
ATOMIC_POSITIONS {crystal}
 Al  0.000000000   0.000000000   0.000000000
K_POINTS {automatic}
  8  8  8  0 0 0
